data;


param FN:= 4;
param D:= 100;
param U_Original:=
         1         1       -1.467673e-01
         2         1       -6.076751e-01
         3         1        3.586260e-01
         4         1       -4.521744e-02
         5         1       -2.699715e-01
         6         1       -1.203921e+00
         7         1        6.152622e-01
         8         1        1.109237e+00
         9         1        6.941998e-03
        10         1       -7.366848e-01
        11         1        1.099884e-02
        12         1        1.464454e+00
        13         1       -2.806017e-01
        14         1        1.603133e+00
        15         1       -5.752709e-01
        16         1       -6.248424e-01
        17         1       -6.254603e-01
        18         1        8.715224e-01
        19         1        1.245484e+00
        20         1       -1.082590e+00
        21         1       -1.410208e-02
        22         1        8.451051e-01
        23         1       -9.903051e-01
        24         1        1.082094e+00
        25         1        1.789248e+00
        26         1       -5.144864e-01
        27         1        1.408716e+00
        28         1       -1.175213e+00
        29         1       -4.574569e-01
        30         1       -5.146664e-01
        31         1       -5.936708e-01
        32         1        8.231717e-01
        33         1        8.101740e-01
        34         1        3.046310e-01
        35         1       -7.762551e-01
        36         1        1.129661e+00
        37         1       -1.723676e-01
        38         1        8.070919e-01
        39         1       -9.745194e-01
        40         1       -1.910912e+00
        41         1       -4.588224e-01
        42         1       -9.491959e-01
        43         1       -1.479451e+00
        44         1        4.393335e-01
        45         1       -2.746536e-01
        46         1        6.092803e-01
        47         1       -1.012620e+00
        48         1       -9.696367e-01
        49         1        7.235519e-01
        50         1       -8.159060e-01
        51         1        1.257937e+00
        52         1        9.715480e-01
        53         1       -1.207730e+00
        54         1        2.014602e-01
        55         1        3.514413e-01
        56         1       -3.946379e-01
        57         1        1.347366e+00
        58         1        2.634766e-01
        59         1        1.059527e+00
        60         1       -3.607732e-02
        61         1        1.071404e+00
        62         1       -3.876797e-01
        63         1        3.771893e-01
        64         1       -1.279190e+00
        65         1       -1.463609e-01
        66         1       -4.564909e-01
        67         1        1.905267e+00
        68         1       -9.598597e-01
        69         1       -3.616021e-01
        70         1        1.472447e-03
        71         1       -3.955558e-01
        72         1        6.574714e-01
        73         1        3.026063e-01
        74         1       -6.607790e-01
        75         1       -9.555338e-01
        76         1        1.128411e+00
        77         1       -1.161507e+00
        78         1        5.704355e-01
        79         1       -3.784966e-01
        80         1       -1.623649e+00
        81         1       -9.446713e-01
        82         1        1.051725e-01
        83         1       -1.791984e+00
        84         1        1.569609e+00
        85         1        6.265308e-01
        86         1        9.115372e-01
        87         1       -1.126726e+00
        88         1       -7.086722e-01
        89         1       -3.875079e-02
        90         1       -9.432425e-01
        91         1       -1.250237e-02
        92         1       -9.942053e-03
        93         1        1.184171e+00
        94         1       -7.236886e-01
        95         1        1.378896e+00
        96         1        2.244105e+00
        97         1        1.954305e+00
        98         1       -5.936340e-01
        99         1       -1.403239e+00
       100         1       -1.181256e+00
         1         2       -5.585520e-01
         2         2       -4.642519e-01
         3         2        8.420176e-01
         4         2        1.198755e-01
         5         2        7.344774e-02
         6         2       -1.377703e+00
         7         2       -4.578221e-01
         8         2       -1.044578e+00
         9         2       -1.665758e+00
        10         2        1.634871e+00
        11         2       -1.087738e+00
        12         2       -2.693267e-01
        13         2        9.837930e-01
        14         2       -7.910975e-01
        15         2       -3.525645e-01
        16         2       -6.341295e-01
        17         2       -9.252982e-01
        18         2        4.140255e-01
        19         2        1.413731e-01
        20         2        7.169176e-01
        21         2        1.372989e+00
        22         2       -4.746434e-01
        23         2       -2.940967e-02
        24         2       -5.652441e-01
        25         2        6.988269e-01
        26         2       -1.669510e+00
        27         2       -1.227383e+00
        28         2       -4.602137e-01
        29         2       -4.286030e-02
        30         2        6.975712e-01
        31         2        6.358030e-01
        32         2        1.969111e+00
        33         2       -9.577894e-01
        34         2       -2.076204e-01
        35         2        2.717015e-01
        36         2       -1.060566e+00
        37         2       -6.689515e-01
        38         2        6.295200e-01
        39         2       -6.986202e-01
        40         2       -4.312269e-01
        41         2       -1.599125e-01
        42         2        8.773729e-01
        43         2        4.287259e-01
        44         2       -6.804954e-01
        45         2       -1.163341e+00
        46         2        1.003778e+00
        47         2       -4.804413e-01
        48         2        1.490884e-01
        49         2       -6.646589e-01
        50         2       -4.644422e-01
        51         2        2.138827e-01
        52         2       -5.024807e-01
        53         2       -1.234568e+00
        54         2       -3.509414e-02
        55         2       -1.796273e+00
        56         2        1.435519e-02
        57         2       -1.111875e+00
        58         2        8.180745e-01
        59         2        4.900920e-01
        60         2        4.310128e-01
        61         2       -1.809424e+00
        62         2       -2.599459e+00
        63         2        8.560480e-01
        64         2       -1.349781e+00
        65         2        5.150553e-01
        66         2       -2.040984e+00
        67         2       -2.250100e-01
        68         2        3.119162e-01
        69         2       -3.908698e-01
        70         2        6.788550e-01
        71         2       -8.789235e-01
        72         2        8.042419e-02
        73         2        7.349015e-01
        74         2        6.279986e-01
        75         2       -1.472662e+00
        76         2        1.354489e+00
        77         2       -2.196670e-01
        78         2        5.827615e-01
        79         2        2.408575e-01
        80         2       -1.134150e-01
        81         2       -7.583217e-01
        82         2        5.864183e-01
        83         2        1.191335e-01
        84         2        1.297733e+00
        85         2        1.159003e+00
        86         2       -5.997036e-01
        87         2       -7.246632e-01
        88         2       -7.300235e-01
        89         2       -7.297466e-01
        90         2       -1.586088e+00
        91         2        1.533152e+00
        92         2        1.279889e+00
        93         2       -5.314781e-01
        94         2       -2.292819e+00
        95         2        1.106378e+00
        96         2       -1.338912e+00
        97         2       -7.558875e-01
        98         2        4.591895e-01
        99         2       -5.926449e-01
       100         2       -1.325151e+00
         1         3       -5.749165e-01
         2         3       -1.055298e-02
         3         3        8.775397e-01
         4         3       -2.516652e+00
         5         3       -1.218263e-01
         6         3       -5.493464e-01
         7         3       -4.700323e-01
         8         3        5.788691e-01
         9         3        2.156183e+00
        10         3        1.354359e+00
        11         3        3.536557e+00
        12         3       -1.581826e+00
        13         3        1.854399e-01
        14         3       -5.389566e-01
        15         3        7.857163e-01
        16         3        4.119675e-01
        17         3        2.532258e-01
        18         3       -1.201130e+00
        19         3       -5.822561e-01
        20         3       -7.968031e-01
        21         3       -1.327448e+00
        22         3       -3.760901e-01
        23         3       -6.079853e-01
        24         3       -1.593335e+00
        25         3       -1.757718e+00
        26         3        1.075859e+00
        27         3        5.599320e-01
        28         3       -1.150999e+00
        29         3       -1.597828e-01
        30         3       -2.761228e-01
        31         3        1.851224e-01
        32         3       -2.656168e-02
        33         3       -1.642276e+00
        34         3       -8.689765e-02
        35         3       -2.591203e+00
        36         3        6.100939e-01
        37         3        7.987853e-03
        38         3        1.317162e-02
        39         3       -2.159445e+00
        40         3       -5.539841e-01
        41         3        2.060148e-01
        42         3       -4.486197e-01
        43         3       -1.390479e+00
        44         3        8.206433e-02
        45         3       -6.935954e-01
        46         3       -1.258368e-01
        47         3        3.315831e-01
        48         3        4.839941e-01
        49         3        2.267044e+00
        50         3       -5.671981e-01
        51         3       -3.939233e-01
        52         3       -4.329174e-01
        53         3       -4.500693e-01
        54         3       -1.527900e+00
        55         3        1.940365e-01
        56         3        1.069210e+00
        57         3       -1.752553e+00
        58         3        1.028479e+00
        59         3        5.624396e-01
        60         3        1.829201e+00
        61         3        1.054046e+00
        62         3        6.034035e-01
        63         3       -9.153245e-01
        64         3       -2.213468e+00
        65         3        4.973500e-01
        66         3        7.293833e-01
        67         3       -2.987651e-01
        68         3        4.233972e-01
        69         3        3.398798e-01
        70         3        3.000905e-01
        71         3       -1.140811e+00
        72         3        2.294767e-01
        73         3        4.429262e-01
        74         3       -1.101911e-01
        75         3       -1.503878e+00
        76         3       -9.608093e-01
        77         3        2.315107e+00
        78         3        7.025166e-01
        79         3       -6.646584e-01
        80         3        1.834431e+00
        81         3        6.396486e-02
        82         3       -3.283177e-01
        83         3        7.991768e-01
        84         3       -3.428619e-01
        85         3       -3.514669e+00
        86         3        5.844654e-01
        87         3       -3.261140e-01
        88         3        4.457027e-01
        89         3        6.257766e-01
        90         3       -3.741694e-01
        91         3       -4.777867e-02
        92         3        3.443862e-01
        93         3        1.420787e+00
        94         3        7.296963e-01
        95         3        8.846079e-03
        96         3        1.437305e-01
        97         3       -3.074312e-01
        98         3       -5.220846e-01
        99         3       -1.148413e+00
       100         3       -1.542101e-01
         1         4       -2.360409e+00
         2         4        3.350784e-01
         3         4        4.446559e-04
         4         4        7.387108e-02
         5         4       -1.002507e+00
         6         4       -1.144877e-01
         7         4        4.444474e-01
         8         4       -1.341020e+00
         9         4       -4.641646e-02
        10         4       -1.613530e+00
        11         4        1.520316e+00
        12         4        1.714649e+00
        13         4        7.063836e-01
        14         4       -2.043637e+00
        15         4       -2.781905e-01
        16         4        3.530021e-01
        17         4        1.011072e+00
        18         4        4.527611e-01
        19         4        1.350202e-01
        20         4       -1.661435e+00
        21         4       -8.520163e-01
        22         4        4.033123e-01
        23         4        1.990671e+00
        24         4        2.088763e-01
        25         4        2.786142e-02
        26         4       -2.232027e+00
        27         4       -5.440152e-01
        28         4        6.916647e-01
        29         4       -1.050132e+00
        30         4       -5.693300e-01
        31         4        1.157554e+00
        32         4        1.487926e+00
        33         4       -3.248173e-02
        34         4        1.608796e+00
        35         4        1.889367e+00
        36         4       -9.775066e-01
        37         4        8.877430e-02
        38         4       -1.540684e+00
        39         4        4.818704e-01
        40         4        7.612662e-01
        41         4        7.177193e-01
        42         4        3.681079e-01
        43         4        1.022916e+00
        44         4        3.645260e-02
        45         4        1.188956e+00
        46         4       -9.951933e-01
        47         4       -1.902210e+00
        48         4       -1.029473e+00
        49         4        2.313322e+00
        50         4       -7.634977e-01
        51         4       -1.174047e-01
        52         4        1.983777e-01
        53         4       -1.173008e-01
        54         4       -2.911528e-01
        55         4       -1.613237e+00
        56         4        8.879718e-01
        57         4       -1.351191e+00
        58         4       -1.251820e+00
        59         4        1.721676e-01
        60         4        1.314146e+00
        61         4       -1.111380e+00
        62         4        8.702164e-01
        63         4        5.869261e-01
        64         4        8.988296e-02
        65         4       -2.045973e+00
        66         4       -7.112071e-03
        67         4        1.769293e-01
        68         4        1.330242e+00
        69         4       -4.317274e-01
        70         4        3.837817e-01
        71         4        7.770416e-01
        72         4        7.383082e-01
        73         4       -2.067833e-01
        74         4        4.298971e-01
        75         4       -1.054751e+00
        76         4       -9.461382e-02
        77         4       -2.445561e-01
        78         4        7.314412e-01
        79         4        3.828662e-03
        80         4       -7.994493e-01
        81         4        1.185950e+00
        82         4        1.095195e+00
        83         4        3.594043e-01
        84         4        1.334507e+00
        85         4       -6.391529e-01
        86         4        4.067196e-01
        87         4        9.708286e-01
        88         4       -1.559318e+00
        89         4        9.328720e-01
        90         4        4.049664e-01
        91         4        8.834639e-02
        92         4       -8.153854e-01
        93         4        8.709548e-01
        94         4        1.228624e+00
        95         4       -1.463918e+00
        96         4       -1.278590e+00
        97         4       -2.775731e-01
        98         4        1.018078e+00
        99         4       -2.068935e-01
       100         4       -2.724451e-01
         1         5        1.261549e-02
         2         5       -2.732463e-01
         3         5       -7.531589e-03
         4         5       -1.049483e+00
         5         5       -2.980062e-01
         6         5        1.821224e+00
         7         5        8.546200e-01
         8         5        3.090814e-01
         9         5        1.197981e+00
        10         5       -5.040112e-01
        11         5        4.488625e-01
        12         5       -3.218302e-01
        13         5       -7.278958e-01
        14         5        1.791492e+00
        15         5        5.084553e-01
        16         5       -2.258735e+00
        17         5       -2.600177e+00
        18         5       -2.829559e-01
        19         5        2.555712e-01
        20         5        9.701585e-01
        21         5        5.450573e-01
        22         5       -1.480119e+00
        23         5        8.342950e-01
        24         5        1.377712e+00
        25         5       -3.324478e-01
        26         5        6.209395e-01
        27         5       -1.232898e+00
        28         5        3.845971e-01
        29         5        1.547382e-01
        30         5       -6.498766e-01
        31         5       -6.124517e-01
        32         5       -1.244661e-02
        33         5       -5.437645e-01
        34         5        9.629134e-01
        35         5       -8.141833e-01
        36         5       -9.007634e-01
        37         5       -2.223851e-01
        38         5       -4.531465e-01
        39         5       -1.227995e+00
        40         5       -3.986435e-01
        41         5        7.727552e-02
        42         5       -1.379901e-01
        43         5        1.281896e+00
        44         5        2.912765e-01
        45         5        1.875256e-01
        46         5       -9.062438e-01
        47         5        1.611425e+00
        48         5        1.694988e-01
        49         5        2.494159e-01
        50         5        2.619470e-01
        51         5        7.934276e-01
        52         5        5.036624e-01
        53         5       -4.076691e-01
        54         5       -2.678237e-01
        55         5        3.211213e-01
        56         5        8.098310e-01
        57         5        1.441983e-01
        58         5        9.478249e-01
        59         5       -2.442732e-01
        60         5        1.057022e+00
        61         5       -2.634604e+00
        62         5       -1.923211e-01
        63         5       -1.809129e+00
        64         5        3.734725e-01
        65         5        2.248389e+00
        66         5        2.443462e-01
        67         5        1.211827e+00
        68         5        2.244123e-02
        69         5        2.354058e-01
        70         5       -9.904317e-01
        71         5        1.940542e-01
        72         5       -4.760374e-01
        73         5       -1.625574e+00
        74         5       -6.642746e-01
        75         5       -1.680831e+00
        76         5        1.000679e+00
        77         5        1.479537e+00
        78         5       -1.242172e+00
        79         5       -1.943068e-01
        80         5        3.323509e-01
        81         5       -3.679496e-02
        82         5        1.958747e-01
        83         5       -5.024175e-01
        84         5       -1.275584e+00
        85         5        1.327535e+00
        86         5       -1.364490e+00
        87         5       -1.605857e+00
        88         5       -5.622461e-01
        89         5        8.459523e-01
        90         5        2.653824e-01
        91         5       -1.371650e+00
        92         5       -1.367608e+00
        93         5       -1.147379e+00
        94         5       -1.802118e-01
        95         5        3.124884e-01
        96         5        1.220493e+00
        97         5        5.014979e-01
        98         5        1.748568e-01
        99         5        5.475705e-01
       100         5        1.225148e+00
;
param X_Original:=
    1       -9.281649e-01
    2        1.290275e+00
    3        1.062743e+00
    4       -7.573439e-01
    5        2.094730e-01
    6        4.753202e-01
    7       -8.479777e-01
    8       -9.476528e-01
    9        9.623138e-02
   10        2.166465e-01
   11        2.495811e-01
   12       -9.682363e-01
   13        5.626320e-01
   14       -1.486712e-01
   15        5.307899e-02
   16        6.629122e-01
   17        8.375551e-01
   18       -1.191153e+00
   19        5.413180e-01
   20        1.038620e+00
   21        7.373512e-01
   22       -9.559531e-01
   23        5.233097e-01
   24        9.828538e-01
   25        5.388114e-01
   26        3.169121e-01
   27        9.536042e-02
   28       -4.442975e-01
   29       -6.825036e-01
   30        9.511976e-01
   31        1.127649e-01
   32        3.725065e-01
   33       -1.885854e-01
   34        5.580877e-01
   35        2.196401e-01
   36       -1.144599e+00
   37        7.408042e-01
   38       -2.463891e-02
   39        5.651008e-01
   40        3.766850e-02
   41       -4.386390e-01
   42        2.116365e+00
   43        4.236045e-01
   44        4.288886e-01
   45       -2.406529e+00
   46        8.199774e-01
   47       -7.687702e-01
   48        7.811044e-01
   49       -9.974464e-02
   50       -1.221477e+00
   51       -1.173744e+00
   52       -5.902658e-01
   53        3.571229e-02
   54       -2.504812e+00
   55        7.396299e-01
   56        1.338858e+00
   57        1.311677e+00
   58       -2.032640e+00
   59       -1.947255e-01
   60        1.818735e+00
   61       -4.186071e-01
   62       -1.358860e+00
   63        1.290430e-01
   64       -1.448128e+00
   65        1.061890e+00
   66       -1.194876e+00
   67       -1.469009e+00
   68       -7.260961e-01
   69       -2.295023e-01
   70       -3.510330e-01
   71        4.100312e-01
   72       -1.488718e+00
   73       -1.756287e-01
   74        7.120554e-01
   75        2.953046e+00
   76       -3.619246e-01
   77        9.618588e-02
   78        2.270223e-02
   79       -1.049705e+00
   80       -1.108979e-01
   81       -1.500333e+00
   82        3.161321e-01
   83       -3.271366e-01
   84        1.006137e+00
   85        4.489134e-01
   86       -6.590387e-01
   87        1.046646e+00
   88        4.389317e-01
   89       -7.699789e-01
   90       -9.101729e-01
   91        8.369891e-01
   92       -1.665352e+00
   93       -2.193483e+00
   94       -1.804913e+00
   95       -1.415206e+00
   96       -1.090340e-01
   97        1.123107e+00
   98       -3.100053e-01
   99        2.852140e-01
  100        1.999932e+00
;
param outliervec_original :=
    1    1
    2    1
    3    1
    4    1
    5    1
    6    0
    7    1
    8    1
    9    1
   10    1
   11    1
   12    1
   13    1
   14    0
   15    1
   16    1
   17    1
   18    1
   19    1
   20    1
   21    1
   22    1
   23    1
   24    1
   25    1
   26    1
   27    1
   28    0
   29    1
   30    1
   31    1
   32    1
   33    1
   34    1
   35    1
   36    1
   37    1
   38    1
   39    1
   40    1
   41    1
   42    1
   43    0
   44    1
   45    0
   46    1
   47    1
   48    1
   49    1
   50    1
   51    0
   52    1
   53    0
   54    1
   55    1
   56    1
   57    1
   58    1
   59    1
   60    1
   61    1
   62    1
   63    1
   64    1
   65    1
   66    1
   67    1
   68    1
   69    1
   70    1
   71    1
   72    0
   73    1
   74    1
   75    1
   76    0
   77    1
   78    1
   79    1
   80    1
   81    1
   82    1
   83    1
   84    1
   85    1
   86    1
   87    1
   88    1
   89    1
   90    0
   91    0
   92    1
   93    0
   94    1
   95    1
   96    1
   97    1
   98    1
   99    1
  100    1
;
param d:= 56;
param r:=5;
param p:=0.880000;
param M:=1000;
param U:=
         1         1       -1.467673e-01
         2         1        3.586260e-01
         3         1       -4.521744e-02
         4         1       -2.699715e-01
         5         1        6.152622e-01
         6         1        1.109237e+00
         7         1        6.941998e-03
         8         1        1.099884e-02
         9         1       -2.806017e-01
        10         1       -5.752709e-01
        11         1        8.715224e-01
        12         1       -1.082590e+00
        13         1       -1.410208e-02
        14         1        8.451051e-01
        15         1       -9.903051e-01
        16         1       -5.144864e-01
        17         1       -1.175213e+00
        18         1       -5.146664e-01
        19         1       -5.936708e-01
        20         1        8.231717e-01
        21         1        1.129661e+00
        22         1        8.070919e-01
        23         1       -1.910912e+00
        24         1       -4.588224e-01
        25         1       -9.491959e-01
        26         1       -1.479451e+00
        27         1       -2.746536e-01
        28         1        6.092803e-01
        29         1       -9.696367e-01
        30         1        7.235519e-01
        31         1        1.257937e+00
        32         1        9.715480e-01
        33         1       -1.207730e+00
        34         1       -3.946379e-01
        35         1        1.059527e+00
        36         1       -3.607732e-02
        37         1       -3.876797e-01
        38         1        3.771893e-01
        39         1       -1.279190e+00
        40         1       -1.463609e-01
        41         1       -4.564909e-01
        42         1        1.905267e+00
        43         1       -3.616021e-01
        44         1        3.026063e-01
        45         1       -6.607790e-01
        46         1        1.128411e+00
        47         1        5.704355e-01
        48         1        1.051725e-01
        49         1        9.115372e-01
        50         1       -7.086722e-01
        51         1       -3.875079e-02
        52         1       -9.432425e-01
        53         1       -1.250237e-02
        54         1       -7.236886e-01
        55         1       -5.936340e-01
        56         1       -1.403239e+00
         1         2       -5.585520e-01
         2         2        8.420176e-01
         3         2        1.198755e-01
         4         2        7.344774e-02
         5         2       -4.578221e-01
         6         2       -1.044578e+00
         7         2       -1.665758e+00
         8         2       -1.087738e+00
         9         2        9.837930e-01
        10         2       -3.525645e-01
        11         2        4.140255e-01
        12         2        7.169176e-01
        13         2        1.372989e+00
        14         2       -4.746434e-01
        15         2       -2.940967e-02
        16         2       -1.669510e+00
        17         2       -4.602137e-01
        18         2        6.975712e-01
        19         2        6.358030e-01
        20         2        1.969111e+00
        21         2       -1.060566e+00
        22         2        6.295200e-01
        23         2       -4.312269e-01
        24         2       -1.599125e-01
        25         2        8.773729e-01
        26         2        4.287259e-01
        27         2       -1.163341e+00
        28         2        1.003778e+00
        29         2        1.490884e-01
        30         2       -6.646589e-01
        31         2        2.138827e-01
        32         2       -5.024807e-01
        33         2       -1.234568e+00
        34         2        1.435519e-02
        35         2        4.900920e-01
        36         2        4.310128e-01
        37         2       -2.599459e+00
        38         2        8.560480e-01
        39         2       -1.349781e+00
        40         2        5.150553e-01
        41         2       -2.040984e+00
        42         2       -2.250100e-01
        43         2       -3.908698e-01
        44         2        7.349015e-01
        45         2        6.279986e-01
        46         2        1.354489e+00
        47         2        5.827615e-01
        48         2        5.864183e-01
        49         2       -5.997036e-01
        50         2       -7.300235e-01
        51         2       -7.297466e-01
        52         2       -1.586088e+00
        53         2        1.533152e+00
        54         2       -2.292819e+00
        55         2        4.591895e-01
        56         2       -5.926449e-01
         1         3       -5.749165e-01
         2         3        8.775397e-01
         3         3       -2.516652e+00
         4         3       -1.218263e-01
         5         3       -4.700323e-01
         6         3        5.788691e-01
         7         3        2.156183e+00
         8         3        3.536557e+00
         9         3        1.854399e-01
        10         3        7.857163e-01
        11         3       -1.201130e+00
        12         3       -7.968031e-01
        13         3       -1.327448e+00
        14         3       -3.760901e-01
        15         3       -6.079853e-01
        16         3        1.075859e+00
        17         3       -1.150999e+00
        18         3       -2.761228e-01
        19         3        1.851224e-01
        20         3       -2.656168e-02
        21         3        6.100939e-01
        22         3        1.317162e-02
        23         3       -5.539841e-01
        24         3        2.060148e-01
        25         3       -4.486197e-01
        26         3       -1.390479e+00
        27         3       -6.935954e-01
        28         3       -1.258368e-01
        29         3        4.839941e-01
        30         3        2.267044e+00
        31         3       -3.939233e-01
        32         3       -4.329174e-01
        33         3       -4.500693e-01
        34         3        1.069210e+00
        35         3        5.624396e-01
        36         3        1.829201e+00
        37         3        6.034035e-01
        38         3       -9.153245e-01
        39         3       -2.213468e+00
        40         3        4.973500e-01
        41         3        7.293833e-01
        42         3       -2.987651e-01
        43         3        3.398798e-01
        44         3        4.429262e-01
        45         3       -1.101911e-01
        46         3       -9.608093e-01
        47         3        7.025166e-01
        48         3       -3.283177e-01
        49         3        5.844654e-01
        50         3        4.457027e-01
        51         3        6.257766e-01
        52         3       -3.741694e-01
        53         3       -4.777867e-02
        54         3        7.296963e-01
        55         3       -5.220846e-01
        56         3       -1.148413e+00
         1         4       -2.360409e+00
         2         4        4.446559e-04
         3         4        7.387108e-02
         4         4       -1.002507e+00
         5         4        4.444474e-01
         6         4       -1.341020e+00
         7         4       -4.641646e-02
         8         4        1.520316e+00
         9         4        7.063836e-01
        10         4       -2.781905e-01
        11         4        4.527611e-01
        12         4       -1.661435e+00
        13         4       -8.520163e-01
        14         4        4.033123e-01
        15         4        1.990671e+00
        16         4       -2.232027e+00
        17         4        6.916647e-01
        18         4       -5.693300e-01
        19         4        1.157554e+00
        20         4        1.487926e+00
        21         4       -9.775066e-01
        22         4       -1.540684e+00
        23         4        7.612662e-01
        24         4        7.177193e-01
        25         4        3.681079e-01
        26         4        1.022916e+00
        27         4        1.188956e+00
        28         4       -9.951933e-01
        29         4       -1.029473e+00
        30         4        2.313322e+00
        31         4       -1.174047e-01
        32         4        1.983777e-01
        33         4       -1.173008e-01
        34         4        8.879718e-01
        35         4        1.721676e-01
        36         4        1.314146e+00
        37         4        8.702164e-01
        38         4        5.869261e-01
        39         4        8.988296e-02
        40         4       -2.045973e+00
        41         4       -7.112071e-03
        42         4        1.769293e-01
        43         4       -4.317274e-01
        44         4       -2.067833e-01
        45         4        4.298971e-01
        46         4       -9.461382e-02
        47         4        7.314412e-01
        48         4        1.095195e+00
        49         4        4.067196e-01
        50         4       -1.559318e+00
        51         4        9.328720e-01
        52         4        4.049664e-01
        53         4        8.834639e-02
        54         4        1.228624e+00
        55         4        1.018078e+00
        56         4       -2.068935e-01
         1         5        1.261549e-02
         2         5       -7.531589e-03
         3         5       -1.049483e+00
         4         5       -2.980062e-01
         5         5        8.546200e-01
         6         5        3.090814e-01
         7         5        1.197981e+00
         8         5        4.488625e-01
         9         5       -7.278958e-01
        10         5        5.084553e-01
        11         5       -2.829559e-01
        12         5        9.701585e-01
        13         5        5.450573e-01
        14         5       -1.480119e+00
        15         5        8.342950e-01
        16         5        6.209395e-01
        17         5        3.845971e-01
        18         5       -6.498766e-01
        19         5       -6.124517e-01
        20         5       -1.244661e-02
        21         5       -9.007634e-01
        22         5       -4.531465e-01
        23         5       -3.986435e-01
        24         5        7.727552e-02
        25         5       -1.379901e-01
        26         5        1.281896e+00
        27         5        1.875256e-01
        28         5       -9.062438e-01
        29         5        1.694988e-01
        30         5        2.494159e-01
        31         5        7.934276e-01
        32         5        5.036624e-01
        33         5       -4.076691e-01
        34         5        8.098310e-01
        35         5       -2.442732e-01
        36         5        1.057022e+00
        37         5       -1.923211e-01
        38         5       -1.809129e+00
        39         5        3.734725e-01
        40         5        2.248389e+00
        41         5        2.443462e-01
        42         5        1.211827e+00
        43         5        2.354058e-01
        44         5       -1.625574e+00
        45         5       -6.642746e-01
        46         5        1.000679e+00
        47         5       -1.242172e+00
        48         5        1.958747e-01
        49         5       -1.364490e+00
        50         5       -5.622461e-01
        51         5        8.459523e-01
        52         5        2.653824e-01
        53         5       -1.371650e+00
        54         5       -1.802118e-01
        55         5        1.748568e-01
        56         5        5.475705e-01
;

param theta:=
    1       -1.159320e+00
    2        8.756340e-01
    3        6.538814e-01
    4       -1.098527e+00
    5        2.850872e-01
;
param X_true:=
    1        1.901414e+00
    2        8.937000e-01
    3       -1.868852e+00
    4        1.312971e+00
    5       -1.665461e+00
    6       -2.609821e-01
    7        3.361631e-01
    8       -1.941628e-01
    9        3.259594e-01
   10        1.322892e+00
   11       -2.011981e+00
   12        3.462250e+00
   13        1.441004e+00
   14       -2.505970e+00
   15       -1.224754e+00
   16        2.465889e+00
   17       -4.442975e-01
   18        1.466049e+00
   19       -7.706728e-02
   20       -8.852232e-01
   21       -1.022172e+00
   22        1.189156e+00
   23        5.243840e-01
   24       -2.402963e-01
   25        1.130280e+00
   26        4.236045e-01
   27       -2.406529e+00
   28        9.250520e-01
   29        2.751812e+00
   30       -2.409038e+00
   31       -1.173744e+00
   32       -1.926016e+00
   33        3.571229e-02
   34        4.247544e-01
   35       -6.892576e-01
   36        4.737259e-01
   37       -2.443693e+00
   38       -1.447041e+00
   39       -1.137997e+00
   40        3.835828e+00
   41       -7.033593e-01
   42       -2.449489e+00
   43        8.407815e-01
   44        3.460844e-01
   45        5.826822e-01
   46       -3.619246e-01
   47       -8.481248e-01
   48       -9.702417e-01
   49       -2.034320e+00
   50        2.025135e+00
   51       -9.699820e-01
   52       -9.101729e-01
   53        8.369891e-01
   54       -2.092679e+00
   55       -3.205011e-01
   56        7.394807e-01
;
param X:=
    1       -9.281649e-01
    2        1.062743e+00
    3       -7.573439e-01
    4        2.094730e-01
    5       -8.479777e-01
    6       -9.476528e-01
    7        9.623138e-02
    8        2.495811e-01
    9        5.626320e-01
   10        5.307899e-02
   11       -1.191153e+00
   12        1.038620e+00
   13        7.373512e-01
   14       -9.559531e-01
   15        5.233097e-01
   16        3.169121e-01
   17       -4.442975e-01
   18        9.511976e-01
   19        1.127649e-01
   20        3.725065e-01
   21       -1.144599e+00
   22       -2.463891e-02
   23        3.766850e-02
   24       -4.386390e-01
   25        2.116365e+00
   26        4.236045e-01
   27       -2.406529e+00
   28        8.199774e-01
   29        7.811044e-01
   30       -9.974464e-02
   31       -1.173744e+00
   32       -5.902658e-01
   33        3.571229e-02
   34        1.338858e+00
   35       -1.947255e-01
   36        1.818735e+00
   37       -1.358860e+00
   38        1.290430e-01
   39       -1.448128e+00
   40        1.061890e+00
   41       -1.194876e+00
   42       -1.469009e+00
   43       -2.295023e-01
   44       -1.756287e-01
   45        7.120554e-01
   46       -3.619246e-01
   47        2.270223e-02
   48        3.161321e-01
   49       -6.590387e-01
   50        4.389317e-01
   51       -7.699789e-01
   52       -9.101729e-01
   53        8.369891e-01
   54       -1.804913e+00
   55       -3.100053e-01
   56        2.852140e-01
;
param outliervec:=
    1    1
    2    1
    3    1
    4    1
    5    1
    6    1
    7    1
    8    1
    9    1
   10    1
   11    1
   12    1
   13    1
   14    1
   15    1
   16    1
   17    0
   18    1
   19    1
   20    1
   21    1
   22    1
   23    1
   24    1
   25    1
   26    0
   27    0
   28    1
   29    1
   30    1
   31    0
   32    1
   33    0
   34    1
   35    1
   36    1
   37    1
   38    1
   39    1
   40    1
   41    1
   42    1
   43    1
   44    1
   45    1
   46    0
   47    1
   48    1
   49    1
   50    1
   51    1
   52    0
   53    0
   54    1
   55    1
   56    1
; 
param greedy_time :=         2.175228e-01
;